c SAT Generator for power-law distributed variable frequencies
c -g u -v 20 -c 91 -k 3 -p 2.750000 -b 3.200000 -f /home/schmidt/Devel/ni-kop-sat/data/ensemble/ruf20-91/ruf20-91-494 -u 1 -U 1 -s 3215217216
p cnf 20 91
6 -8 10 0
-1 12 -19 0
3 -13 20 0
-5 -6 -19 0
-4 7 -11 0
-8 19 -20 0
4 11 18 0
8 -14 -18 0
-3 7 20 0
-7 17 -20 0
8 12 18 0
-1 13 -19 0
-5 -8 19 0
-2 -4 13 0
-12 17 -19 0
-9 -16 20 0
-7 13 20 0
-1 -18 -20 0
-6 11 18 0
-5 -16 17 0
-9 16 19 0
-1 -12 -14 0
2 4 -20 0
-5 14 -17 0
-2 7 12 0
4 -6 8 0
3 -8 14 0
-9 16 -18 0
7 9 -11 0
-15 -19 20 0
10 11 -20 0
3 15 20 0
-4 -9 -11 0
-3 -11 -20 0
3 15 17 0
8 -11 18 0
-17 -18 -19 0
-2 -4 -17 0
-2 -5 -6 0
-4 6 -7 0
-2 -13 -20 0
7 8 -11 0
7 14 -15 0
-4 -5 12 0
-13 18 20 0
2 -3 18 0
2 -6 -18 0
5 6 9 0
1 -7 -15 0
4 -10 -18 0
6 16 20 0
8 19 -20 0
2 6 -9 0
3 -8 -10 0
1 -18 20 0
9 18 -20 0
2 -13 -19 0
-8 -9 -16 0
6 -7 -11 0
-4 -8 12 0
6 10 -20 0
-1 16 17 0
-3 5 -18 0
4 -11 20 0
4 -16 -17 0
9 -12 20 0
2 6 9 0
13 14 19 0
1 3 -10 0
12 16 17 0
-4 10 -18 0
-4 6 16 0
-2 -4 -20 0
-2 -4 -19 0
-7 13 -16 0
-2 -6 14 0
8 9 13 0
-1 10 -18 0
3 13 19 0
1 -18 19 0
1 3 15 0
-5 -7 -14 0
-2 4 -16 0
-3 -9 10 0
-1 -15 -19 0
10 16 19 0
-4 -6 -16 0
-1 -5 12 0
3 16 20 0
2 7 14 0
-1 -3 -10 0
